Optimal - objective value 1087.00000000
      4 x_0_4                    1                       0
      8 x_1_0                    1                       0
     18 x_2_2                    1                       0
     29 x_3_5                    1                       0
     33 x_4_1                    1                       0
     47 x_5_7                    1                       0
     54 x_6_6                    1                       0
     59 x_7_3                    1                       0
    260 y_0_4_1_0                1                     130
    269 y_0_4_2_2                1                      87
    278 y_0_4_3_5                1                      84
    282 y_0_4_4_1                1                     174
    294 y_0_4_5_7                1                     146
    300 y_0_4_6_6                1                      88
    305 y_0_4_7_3                1                     160
    457 y_1_0_2_2                1                      10
    467 y_1_0_3_5                1                       6
    470 y_1_0_4_1                1                      10
    483 y_1_0_5_7                1                       4
    489 y_1_0_6_6                1                      24
    493 y_1_0_7_3                1                      10
    866 y_2_2_3_5                1                      18
    870 y_2_2_4_1                1                       8
    882 y_2_2_5_7                1                      12
    888 y_2_2_6_6                1                      16
    892 y_2_2_7_3                1                       9
   1213 y_3_5_4_1                1                      18
   1225 y_3_5_5_7                1                       8
   1231 y_3_5_6_6                1                      14
   1236 y_3_5_7_3                1                       3
   1323 y_4_1_5_7                1                      12
   1329 y_4_1_6_6                1                      12
   1333 y_4_1_7_3                1                       9
   1568 y_5_7_6_6                1                       7
   1572 y_5_7_7_3                1                       2
   1621 y_6_6_7_3                1                       6
